<?xml version = "1.0" standalone="yes"?>
<!-- This file has been generated by DOcplex version 2.23.222  -->
<CPLEXSolution version="1.0">
 <header
   problemName="CVRP"
   objectiveValue="16607.1"
  />
 <variables>
  <variable name="x_0_2" index="1" value="1.00000"/>
  <variable name="x_0_3" index="2" value="1.00000"/>
  <variable name="x_0_4" index="3" value="1.00000"/>
  <variable name="x_0_5" index="4" value="1.00000"/>
  <variable name="x_0_6" index="5" value="1.00000"/>
  <variable name="x_0_7" index="6" value="1.00000"/>
  <variable name="x_0_9" index="8" value="1.00000"/>
  <variable name="x_0_10" index="9" value="1.00000"/>
  <variable name="x_0_11" index="10" value="1.00000"/>
  <variable name="x_0_14" index="13" value="1.00000"/>
  <variable name="x_0_15" index="14" value="1.00000"/>
  <variable name="x_0_20" index="19" value="1.00000"/>
  <variable name="x_1_0" index="24" value="1.00000"/>
  <variable name="x_2_21" index="68" value="1.00000"/>
  <variable name="x_3_0" index="72" value="1.00000"/>
  <variable name="x_4_17" index="112" value="1.00000"/>
  <variable name="x_5_8" index="127" value="1.00000"/>
  <variable name="x_6_22" index="165" value="1.00000"/>
  <variable name="x_7_19" index="186" value="1.00000"/>
  <variable name="x_8_24" index="215" value="1.00000"/>
  <variable name="x_9_23" index="238" value="1.00000"/>
  <variable name="x_10_0" index="240" value="1.00000"/>
  <variable name="x_11_0" index="264" value="1.00000"/>
  <variable name="x_12_0" index="288" value="1.00000"/>
  <variable name="x_13_0" index="312" value="1.00000"/>
  <variable name="x_14_16" index="351" value="1.00000"/>
  <variable name="x_15_18" index="377" value="1.00000"/>
  <variable name="x_16_12" index="396" value="1.00000"/>
  <variable name="x_17_0" index="408" value="1.00000"/>
  <variable name="x_18_1" index="433" value="1.00000"/>
  <variable name="x_19_0" index="456" value="1.00000"/>
  <variable name="x_20_0" index="480" value="1.00000"/>
  <variable name="x_21_0" index="504" value="1.00000"/>
  <variable name="x_22_13" index="541" value="1.00000"/>
  <variable name="x_23_0" index="552" value="1.00000"/>
  <variable name="x_24_0" index="576" value="1.00000"/>
  <variable name="u_1" index="600" value="39.00000"/>
  <variable name="u_2" index="601" value="12.00000"/>
  <variable name="u_3" index="602" value="14.00000"/>
  <variable name="u_4" index="603" value="31.00000"/>
  <variable name="u_5" index="604" value="2.00000"/>
  <variable name="u_6" index="605" value="20.00000"/>
  <variable name="u_7" index="606" value="15.00000"/>
  <variable name="u_8" index="607" value="25.00000"/>
  <variable name="u_9" index="608" value="4.00000"/>
  <variable name="u_10" index="609" value="39.00000"/>
  <variable name="u_11" index="610" value="38.00000"/>
  <variable name="u_12" index="611" value="38.00000"/>
  <variable name="u_13" index="612" value="34.00000"/>
  <variable name="u_14" index="613" value="11.00000"/>
  <variable name="u_15" index="614" value="17.00000"/>
  <variable name="u_16" index="615" value="28.00000"/>
  <variable name="u_17" index="616" value="39.00000"/>
  <variable name="u_18" index="617" value="33.00000"/>
  <variable name="u_19" index="618" value="34.00000"/>
  <variable name="u_20" index="619" value="36.00000"/>
  <variable name="u_21" index="620" value="34.00000"/>
  <variable name="u_22" index="621" value="32.00000"/>
  <variable name="u_23" index="622" value="37.00000"/>
  <variable name="u_24" index="623" value="39.00000"/>
 </variables>
</CPLEXSolution>
